c Result of efficient AIG-to-CNF conversion using package CNF
p cnf 196 626
-2 -3 -76 108 113 0
-2 3 76 108 113 0
2 -113 0
2 3 -76 0
2 -108 0
2 -3 76 0
3 4 -73 0
3 -4 73 0
-3 -4 -73 0
-3 4 73 0
4 -133 -5 0
4 -5 -36 0
4 -133 -36 0
-4 133 36 0
-4 5 36 0
-4 133 5 0
5 -6 35 0
5 6 -35 0
-5 6 35 0
-5 -6 -35 0
-6 134 166 7 0
6 -7 0
6 -166 0
6 -134 0
-7 135 167 8 0
7 -8 0
7 -167 0
7 -135 0
-8 136 168 9 0
8 -9 0
8 -168 0
8 -136 0
-9 137 169 10 0
9 -10 0
9 -169 0
9 -137 0
-10 138 170 11 0
10 -11 0
10 -170 0
10 -138 0
-11 139 171 12 0
11 -12 0
11 -171 0
11 -139 0
-12 140 172 13 0
12 -13 0
12 -172 0
12 -140 0
-13 141 173 14 0
13 -14 0
13 -173 0
13 -141 0
-14 142 174 15 0
14 -15 0
14 -174 0
14 -142 0
-15 143 175 16 0
15 -16 0
15 -175 0
15 -143 0
-16 144 176 17 0
16 -17 0
16 -176 0
16 -144 0
-17 145 177 18 0
17 -18 0
17 -177 0
17 -145 0
-18 146 178 19 0
18 -19 0
18 -178 0
18 -146 0
-19 147 179 20 0
19 -20 0
19 -179 0
19 -147 0
-20 148 180 21 0
20 -21 0
20 -180 0
20 -148 0
-21 149 181 22 0
21 -22 0
21 -181 0
21 -149 0
-22 150 182 23 0
22 -23 0
22 -182 0
22 -150 0
-23 151 183 24 0
23 -24 0
23 -183 0
23 -151 0
-24 152 184 25 0
24 -25 0
24 -184 0
24 -152 0
-25 153 185 26 0
25 -26 0
25 -185 0
25 -153 0
-26 154 186 27 0
26 -27 0
26 -186 0
26 -154 0
-27 155 187 28 0
27 -28 0
27 -187 0
27 -155 0
-28 156 188 29 0
28 -29 0
28 -188 0
28 -156 0
-29 157 189 30 0
29 -30 0
29 -189 0
29 -157 0
-30 158 190 31 0
30 -31 0
30 -190 0
30 -158 0
-31 159 191 32 0
31 -32 0
31 -191 0
31 -159 0
-32 160 192 33 0
32 -33 0
32 -192 0
32 -160 0
-33 161 193 34 0
33 -34 0
33 -193 0
33 -161 0
-34 162 163 194 195 0
34 -195 0
34 -194 0
34 -162 0
34 -163 0
-35 133 165 0
35 -133 0
35 -165 0
36 -134 -37 0
36 -37 -39 0
36 -134 -39 0
-36 134 39 0
-36 37 39 0
-36 134 37 0
37 -7 38 0
37 7 -38 0
-37 7 38 0
-37 -7 -38 0
-38 134 166 0
38 -134 0
38 -166 0
39 -135 -40 0
39 -40 -42 0
39 -135 -42 0
-39 135 42 0
-39 40 42 0
-39 135 40 0
40 -8 41 0
40 8 -41 0
-40 8 41 0
-40 -8 -41 0
-41 135 167 0
41 -135 0
41 -167 0
42 -136 -43 0
42 -43 -45 0
42 -136 -45 0
-42 136 45 0
-42 43 45 0
-42 136 43 0
43 -9 44 0
43 9 -44 0
-43 9 44 0
-43 -9 -44 0
-44 136 168 0
44 -136 0
44 -168 0
45 -137 -46 0
45 169 -10 -46 0
45 -137 10 0
45 -169 10 -46 0
-45 -10 46 0
-45 137 -169 -10 0
-45 137 46 0
-45 137 169 10 0
46 -138 -47 0
46 -47 -49 0
46 -138 -49 0
-46 138 49 0
-46 47 49 0
-46 138 47 0
47 -11 48 0
47 11 -48 0
-47 11 48 0
-47 -11 -48 0
-48 138 170 0
48 -138 0
48 -170 0
49 -139 -50 0
49 171 -12 -50 0
49 -139 12 0
49 -171 12 -50 0
-49 -12 50 0
-49 139 -171 -12 0
-49 139 50 0
-49 139 171 12 0
50 -140 -51 0
50 172 -13 -51 0
50 -140 13 0
50 -172 13 -51 0
-50 -13 51 0
-50 140 -172 -13 0
-50 140 51 0
-50 140 172 13 0
51 -141 -52 0
51 173 -14 -52 0
51 -141 14 0
51 -173 14 -52 0
-51 -14 52 0
-51 141 -173 -14 0
-51 141 52 0
-51 141 173 14 0
52 -142 -53 0
52 174 -15 -53 0
52 -142 15 0
52 -174 15 -53 0
-52 -15 53 0
-52 142 -174 -15 0
-52 142 53 0
-52 142 174 15 0
53 -143 -54 0
53 175 -16 -54 0
53 -143 16 0
53 -175 16 -54 0
-53 -16 54 0
-53 143 -175 -16 0
-53 143 54 0
-53 143 175 16 0
54 -144 -55 0
54 176 -17 -55 0
54 -144 17 0
54 -176 17 -55 0
-54 -17 55 0
-54 144 -176 -17 0
-54 144 55 0
-54 144 176 17 0
55 -145 -56 0
55 177 -18 -56 0
55 -145 18 0
55 -177 18 -56 0
-55 -18 56 0
-55 145 -177 -18 0
-55 145 56 0
-55 145 177 18 0
56 -146 -57 0
56 178 -19 -57 0
56 -146 19 0
56 -178 19 -57 0
-56 -19 57 0
-56 146 -178 -19 0
-56 146 57 0
-56 146 178 19 0
57 -147 -58 0
57 179 -20 -58 0
57 -147 20 0
57 -179 20 -58 0
-57 -20 58 0
-57 147 -179 -20 0
-57 147 58 0
-57 147 179 20 0
58 -148 -59 0
58 180 -21 -59 0
58 -148 21 0
58 -180 21 -59 0
-58 -21 59 0
-58 148 -180 -21 0
-58 148 59 0
-58 148 180 21 0
59 -149 -60 0
59 181 -22 -60 0
59 -149 22 0
59 -181 22 -60 0
-59 -22 60 0
-59 149 -181 -22 0
-59 149 60 0
-59 149 181 22 0
60 -150 -61 0
60 182 -23 -61 0
60 -150 23 0
60 -182 23 -61 0
-60 -23 61 0
-60 150 -182 -23 0
-60 150 61 0
-60 150 182 23 0
61 -151 -62 0
61 183 -24 -62 0
61 -151 24 0
61 -183 24 -62 0
-61 -24 62 0
-61 151 -183 -24 0
-61 151 62 0
-61 151 183 24 0
62 -152 -63 0
62 184 -25 -63 0
62 -152 25 0
62 -184 25 -63 0
-62 -25 63 0
-62 152 -184 -25 0
-62 152 63 0
-62 152 184 25 0
63 -153 -64 0
63 185 -26 -64 0
63 -153 26 0
63 -185 26 -64 0
-63 -26 64 0
-63 153 -185 -26 0
-63 153 64 0
-63 153 185 26 0
64 -154 -65 0
64 186 -27 -65 0
64 -154 27 0
64 -186 27 -65 0
-64 -27 65 0
-64 154 -186 -27 0
-64 154 65 0
-64 154 186 27 0
65 -155 -66 0
65 187 -28 -66 0
65 -155 28 0
65 -187 28 -66 0
-65 -28 66 0
-65 155 -187 -28 0
-65 155 66 0
-65 155 187 28 0
66 -156 -67 0
66 188 -29 -67 0
66 -156 29 0
66 -188 29 -67 0
-66 -29 67 0
-66 156 -188 -29 0
-66 156 67 0
-66 156 188 29 0
67 -157 -68 0
67 189 -30 -68 0
67 -157 30 0
67 -189 30 -68 0
-67 -30 68 0
-67 157 -189 -30 0
-67 157 68 0
-67 157 189 30 0
68 -158 -69 0
68 190 -31 -69 0
68 -158 31 0
68 -190 31 -69 0
-68 -31 69 0
-68 158 -190 -31 0
-68 158 69 0
-68 158 190 31 0
69 -159 -70 0
69 191 -32 -70 0
69 -159 32 0
69 -191 32 -70 0
-69 -32 70 0
-69 159 -191 -32 0
-69 159 70 0
-69 159 191 32 0
70 -160 -71 0
70 192 -33 -71 0
70 -160 33 0
70 -192 33 -71 0
-70 -33 71 0
-70 160 -192 -33 0
-70 160 71 0
-70 160 192 33 0
71 -161 -72 0
71 193 -34 -72 0
71 -161 34 0
71 -193 34 -72 0
-71 161 72 0
-71 161 -193 -34 0
-71 -34 72 0
-71 161 193 34 0
-72 163 -195 0
-72 162 -194 0
-72 162 163 0
72 -163 194 0
72 -162 195 0
72 -162 -163 0
73 74 -75 0
73 -74 75 0
-73 -74 -75 0
-73 74 75 0
-74 133 165 6 0
74 -6 0
74 -165 0
74 -133 0
75 132 -164 0
-75 -132 0
-75 164 0
-76 75 77 0
-76 -75 -77 0
76 -75 77 0
76 75 -77 0
-77 -133 78 0
-77 165 78 0
77 -78 0
77 133 -165 0
-78 -134 79 0
-78 166 79 0
78 -79 0
78 134 -166 0
-79 -135 80 0
-79 167 80 0
79 -80 0
79 135 -167 0
-80 -136 81 0
-80 168 81 0
80 -81 0
80 136 -168 0
-81 -137 82 0
-81 169 82 0
81 -82 0
81 137 -169 0
-82 -138 83 0
-82 170 83 0
82 -83 0
82 138 -170 0
-83 -139 84 107 0
-83 171 84 107 0
83 -84 0
83 -107 0
83 139 -171 0
-84 -141 85 106 0
-84 173 85 106 0
84 -85 0
84 -106 0
84 141 -173 0
-85 -143 86 105 0
-85 175 86 105 0
85 -86 0
85 -105 0
85 143 -175 0
-86 -145 87 104 0
-86 177 87 104 0
86 -87 0
86 -104 0
86 145 -177 0
-87 -147 88 103 0
-87 179 88 103 0
87 -88 0
87 -103 0
87 147 -179 0
-88 -149 89 102 0
-88 181 89 102 0
88 -89 0
88 -102 0
88 149 -181 0
-89 -151 90 101 0
-89 183 90 101 0
89 -90 0
89 -101 0
89 151 -183 0
-90 -153 91 100 0
-90 185 91 100 0
90 -91 0
90 -100 0
90 153 -185 0
-91 -155 92 99 0
-91 187 92 99 0
91 -92 0
91 -99 0
91 155 -187 0
-92 -157 93 98 0
-92 189 93 98 0
92 -93 0
92 -98 0
92 157 -189 0
-93 -159 94 97 0
-93 191 94 97 0
93 -94 0
93 -97 0
93 159 -191 0
-94 -161 95 96 0
-94 193 95 96 0
94 -96 0
94 -95 0
94 161 -193 0
95 163 -195 0
-95 -163 0
-95 195 0
96 162 -194 0
-96 -162 0
-96 194 0
97 160 -192 0
-97 -160 0
-97 192 0
98 158 -190 0
-98 -158 0
-98 190 0
99 156 -188 0
-99 -156 0
-99 188 0
100 154 -186 0
-100 -154 0
-100 186 0
101 152 -184 0
-101 -152 0
-101 184 0
102 150 -182 0
-102 -150 0
-102 182 0
103 148 -180 0
-103 -148 0
-103 180 0
104 146 -178 0
-104 -146 0
-104 178 0
105 144 -176 0
-105 -144 0
-105 176 0
106 142 -174 0
-106 -142 0
-106 174 0
107 140 -172 0
-107 -140 0
-107 172 0
108 -109 111 0
108 109 -111 0
-108 109 111 0
-108 -109 -111 0
109 78 -110 0
109 -78 110 0
-109 -78 -110 0
-109 78 110 0
110 133 -165 0
-110 -133 0
-110 165 0
-111 -36 -112 0
-111 36 112 0
111 36 -112 0
111 -36 112 0
112 133 -5 0
112 -133 5 0
-112 -133 -5 0
-112 133 5 0
-113 114 -119 -121 123 0
-113 114 119 121 123 0
113 -123 0
113 -119 121 0
113 -114 0
113 119 -121 0
114 -115 117 0
114 115 -117 0
-114 115 117 0
-114 -115 -117 0
115 79 -116 0
115 -79 116 0
-115 -79 -116 0
-115 79 116 0
116 134 -166 0
-116 -134 0
-116 166 0
-117 -39 -118 0
-117 39 118 0
117 39 -118 0
117 -39 118 0
118 134 -37 0
118 -134 37 0
-118 -134 -37 0
-118 134 37 0
119 80 -120 0
119 -80 120 0
-119 -80 -120 0
-119 80 120 0
120 135 -167 0
-120 -135 0
-120 167 0
-121 -42 -122 0
-121 42 122 0
121 42 -122 0
121 -42 122 0
122 135 -40 0
122 -135 40 0
-122 -135 -40 0
-122 135 40 0
-123 124 126 130 0
-123 -124 -126 -128 0
-123 124 126 -128 0
-123 -124 -126 130 0
123 -124 126 0
123 124 -126 0
123 128 -130 0
124 81 -125 0
124 -81 125 0
-124 -81 -125 0
-124 81 125 0
125 136 -168 0
-125 -136 0
-125 168 0
-126 -45 -127 0
-126 45 127 0
126 45 -127 0
126 -45 127 0
127 136 -43 0
127 -136 43 0
-127 -136 -43 0
-127 136 43 0
128 83 -129 0
128 -83 129 0
-128 -83 -129 0
-128 83 129 0
129 138 -170 0
-129 -138 0
-129 170 0
-130 -49 -131 0
-130 49 131 0
130 49 -131 0
130 -49 131 0
131 138 -47 0
131 -138 47 0
-131 -138 -47 0
-131 138 47 0
-196 0
2 0

